76 79 
27 97 
99 45 
61 75 
86 0 
71 78 
59 45 
66 8 
69 11 
16 59 
27 50 
59 83 
50 15 
73 86 
53 20 
88 81 
99 67 
31 50 
13 92 
77 51 
92 49 
29 3 
94 47 
12 16 
58 80 
27 37 
82 87 
20 33 
54 45 
71 59 
